data/solutions/recovery/wellformed/moderate/flexible/wellformed_moderate_instance11/27.sol
Elapsed time: 0.13
Upper bound: 11158.0
Planning weighted value: 74311.0
C[0]=11158.0
C[1]=11158.0
C[2]=11156.0
y[0]=2
y[1]=1
y[2]=0
y[3]=2
y[4]=1
y[5]=0
y[6]=1
y[7]=1
y[8]=1
y[9]=0
y[10]=2
y[11]=0
y[12]=2
y[13]=2
y[14]=1
y[15]=2
y[16]=0
y[17]=2
y[18]=0
y[19]=2
y[20]=2
y[21]=0
y[22]=1
y[23]=0
y[24]=2
y[25]=1
y[26]=2
y[27]=0
y[28]=1
y[29]=1
y[30]=1
y[31]=0
y[32]=2
